p sp 9 14
a 1 2  13
a 1 5  24
a 1 7  30
a 2 1  13
a 2 3  17
a 2 5  9

a 3 2  17
a 3 4  34
a 4 3  34
a 4 5  40
a 4 6  42
a 4 8  29

a 5 1  24
a 5 2  9

a 5 4  40
a 5 6  47
a 5 7  20

a 6 4  42
a 6 5  47
a 6 7  10
a 6 9  50

a 7 1  30
a 7 5  20
a 7 6  10
a 7 9  60
a 8 4  29

a 9 6  50
a 9 7  60